(set-logic QF_LIA)
(declare-fun x0 () Int)
(declare-fun x1 () Int)
(declare-fun x2 () Int)
(declare-fun x3 () Int)
(declare-fun x4 () Int)
(declare-fun x5 () Int)
(declare-fun x6 () Int)
(declare-fun x7 () Int)
(declare-fun x8 () Int)
(declare-fun x9 () Int)
(declare-fun A0 () Bool)
(declare-fun A1 () Bool)
(declare-fun A2 () Bool)
(declare-fun A3 () Bool)
(declare-fun A4 () Bool)
(declare-fun A5 () Bool)
(declare-fun A6 () Bool)
(declare-fun A7 () Bool)
(declare-fun A8 () Bool)
(declare-fun A9 () Bool)
(assert (let ((.def_0 (* (- 1) x7))) (let ((.def_1 (* (- 1) x5))) (let ((.def_2 (+ .def_1 .def_0))) (let ((.def_3 (< .def_2 (- 1)))) (let ((.def_4 (and A1 .def_3))) (let ((.def_5 (not .def_4))) (let ((.def_6 (not A6))) (let ((.def_7 (or .def_6 A5))) (let ((.def_8 (not .def_7))) (let ((.def_9 (or .def_8 .def_5))) (let ((.def_10 (not .def_9))) (let ((.def_11 (* 1 x3))) (let ((.def_12 (* 1 x6))) (let ((.def_13 (+ .def_12 .def_11))) (let ((.def_14 (< .def_13 (- 1)))) (let ((.def_15 (not .def_14))) (let ((.def_16 (and A6 .def_15))) (let ((.def_17 (not .def_16))) (let ((.def_18 (or A2 A8))) (let ((.def_19 (or .def_18 .def_17))) (let ((.def_20 (not .def_19))) (let ((.def_21 (and .def_20 .def_10))) (let ((.def_22 (not A9))) (let ((.def_23 (and .def_22 A5))) (let ((.def_24 (not .def_23))) (let ((.def_25 (or A9 A7))) (let ((.def_26 (and .def_25 .def_24))) (let ((.def_27 (* (- 1) x6))) (let ((.def_28 (< .def_27 1))) (let ((.def_29 (or .def_28 A4))) (let ((.def_30 (not .def_29))) (let ((.def_31 (< .def_11 (- 1)))) (let ((.def_32 (not .def_31))) (let ((.def_33 (not A3))) (let ((.def_34 (= .def_33 .def_32))) (let ((.def_35 (not .def_34))) (let ((.def_36 (and .def_35 .def_30))) (let ((.def_37 (not .def_36))) (let ((.def_38 (and .def_37 .def_26))) (let ((.def_39 (or .def_38 .def_21))) (let ((.def_40 (+ .def_0 .def_12))) (let ((.def_41 (< .def_40 (- 1)))) (let ((.def_42 (= .def_41 A4))) (let ((.def_43 (not .def_42))) (let ((.def_44 (* 1 x0))) (let ((.def_45 (+ .def_44 .def_11))) (let ((.def_46 (< .def_45 (- 1)))) (let ((.def_47 (* (- 1) x1))) (let ((.def_48 (< .def_47 (- 1)))) (let ((.def_49 (and .def_48 .def_46))) (let ((.def_50 (and .def_49 .def_43))) (let ((.def_51 (and .def_22 A6))) (let ((.def_52 (not .def_51))) (let ((.def_53 (* 1 x5))) (let ((.def_54 (+ .def_12 .def_53))) (let ((.def_55 (< .def_54 1))) (let ((.def_56 (not .def_55))) (let ((.def_57 (* (- 1) x3))) (let ((.def_58 (+ .def_57 .def_44))) (let ((.def_59 (< .def_58 1))) (let ((.def_60 (or .def_59 .def_56))) (let ((.def_61 (or .def_60 .def_52))) (let ((.def_62 (not .def_61))) (let ((.def_63 (or .def_62 .def_50))) (let ((.def_64 (* 1 x9))) (let ((.def_65 (< .def_64 1))) (let ((.def_66 (* (- 1) x0))) (let ((.def_67 (+ .def_1 .def_66))) (let ((.def_68 (< .def_67 1))) (let ((.def_69 (not .def_68))) (let ((.def_70 (= .def_69 .def_65))) (let ((.def_71 (not A1))) (let ((.def_72 (= A1 .def_71))) (let ((.def_73 (and .def_72 .def_70))) (let ((.def_74 (not A0))) (let ((.def_75 (* 1 x8))) (let ((.def_76 (< .def_75 1))) (let ((.def_77 (not .def_76))) (let ((.def_78 (and .def_77 .def_74))) (let ((.def_79 (not .def_78))) (let ((.def_80 (+ .def_66 .def_75))) (let ((.def_81 (< .def_80 1))) (let ((.def_82 (not .def_81))) (let ((.def_83 (or A2 .def_82))) (let ((.def_84 (not .def_83))) (let ((.def_85 (and .def_84 .def_79))) (let ((.def_86 (or .def_85 .def_73))) (let ((.def_87 (and .def_86 .def_63))) (let ((.def_88 (and .def_87 .def_39))) (let ((.def_89 (* 1 x2))) (let ((.def_90 (+ .def_75 .def_89))) (let ((.def_91 (< .def_90 1))) (let ((.def_92 (not .def_91))) (let ((.def_93 (or .def_92 .def_33))) (let ((.def_94 (not .def_93))) (let ((.def_95 (and A0 A7))) (let ((.def_96 (not .def_95))) (let ((.def_97 (= .def_96 .def_94))) (let ((.def_98 (not .def_97))) (let ((.def_99 (* (- 1) x9))) (let ((.def_100 (* 1 x1))) (let ((.def_101 (+ .def_100 .def_99))) (let ((.def_102 (< .def_101 (- 1)))) (let ((.def_103 (< .def_1 1))) (let ((.def_104 (not .def_103))) (let ((.def_105 (= .def_104 .def_102))) (let ((.def_106 (= .def_105 .def_23))) (let ((.def_107 (or .def_106 .def_98))) (let ((.def_108 (not .def_107))) (let ((.def_109 (+ .def_12 .def_64))) (let ((.def_110 (< .def_109 1))) (let ((.def_111 (not .def_110))) (let ((.def_112 (or .def_111 A9))) (let ((.def_113 (* (- 1) x8))) (let ((.def_114 (+ .def_53 .def_113))) (let ((.def_115 (< .def_114 1))) (let ((.def_116 (not .def_115))) (let ((.def_117 (or .def_116 .def_6))) (let ((.def_118 (= .def_117 .def_112))) (let ((.def_119 (not .def_118))) (let ((.def_120 (not A5))) (let ((.def_121 (or .def_120 A4))) (let ((.def_122 (not .def_121))) (let ((.def_123 (* 1 x4))) (let ((.def_124 (< .def_123 1))) (let ((.def_125 (or .def_124 A9))) (let ((.def_126 (not .def_125))) (let ((.def_127 (and .def_126 .def_122))) (let ((.def_128 (or .def_127 .def_119))) (let ((.def_129 (or .def_128 .def_108))) (let ((.def_130 (or A1 A8))) (let ((.def_131 (not .def_130))) (let ((.def_132 (not A2))) (let ((.def_133 (= .def_77 .def_132))) (let ((.def_134 (not .def_133))) (let ((.def_135 (or .def_134 .def_131))) (let ((.def_136 (not .def_135))) (let ((.def_137 (* 1 x7))) (let ((.def_138 (+ .def_137 .def_1))) (let ((.def_139 (< .def_138 1))) (let ((.def_140 (not .def_139))) (let ((.def_141 (and .def_140 .def_22))) (let ((.def_142 (+ .def_99 .def_123))) (let ((.def_143 (< .def_142 (- 1)))) (let ((.def_144 (not .def_143))) (let ((.def_145 (or A4 .def_144))) (let ((.def_146 (and .def_145 .def_141))) (let ((.def_147 (and .def_146 .def_136))) (let ((.def_148 (or .def_120 A3))) (let ((.def_149 (not .def_148))) (let ((.def_150 (+ .def_75 .def_53))) (let ((.def_151 (< .def_150 (- 1)))) (let ((.def_152 (not .def_151))) (let ((.def_153 (+ .def_0 .def_53))) (let ((.def_154 (< .def_153 1))) (let ((.def_155 (= .def_154 .def_152))) (let ((.def_156 (not .def_155))) (let ((.def_157 (and .def_156 .def_149))) (let ((.def_158 (not .def_157))) (let ((.def_159 (* (- 1) x2))) (let ((.def_160 (+ .def_159 .def_75))) (let ((.def_161 (< .def_160 (- 1)))) (let ((.def_162 (not .def_161))) (let ((.def_163 (or .def_71 .def_162))) (let ((.def_164 (+ .def_159 .def_47))) (let ((.def_165 (< .def_164 (- 1)))) (let ((.def_166 (not .def_165))) (let ((.def_167 (or A0 .def_166))) (let ((.def_168 (or .def_167 .def_163))) (let ((.def_169 (and .def_168 .def_158))) (let ((.def_170 (not .def_169))) (let ((.def_171 (or .def_170 .def_147))) (let ((.def_172 (or .def_171 .def_129))) (let ((.def_173 (and .def_172 .def_88))) (let ((.def_174 (not .def_173))) (let ((.def_175 (* (- 1) x4))) (let ((.def_176 (+ .def_175 .def_113))) (let ((.def_177 (< .def_176 (- 1)))) (let ((.def_178 (not .def_177))) (let ((.def_179 (< .def_12 1))) (let ((.def_180 (not .def_179))) (let ((.def_181 (or .def_180 .def_178))) (let ((.def_182 (not .def_181))) (let ((.def_183 (< .def_100 (- 1)))) (let ((.def_184 (not .def_183))) (let ((.def_185 (or .def_184 A6))) (let ((.def_186 (not .def_185))) (let ((.def_187 (or .def_186 .def_182))) (let ((.def_188 (not A7))) (let ((.def_189 (< .def_44 (- 1)))) (let ((.def_190 (and .def_189 .def_188))) (let ((.def_191 (not .def_190))) (let ((.def_192 (or A8 .def_6))) (let ((.def_193 (not .def_192))) (let ((.def_194 (or .def_193 .def_191))) (let ((.def_195 (and .def_194 .def_187))) (let ((.def_196 (not .def_195))) (let ((.def_197 (+ .def_27 .def_0))) (let ((.def_198 (< .def_197 1))) (let ((.def_199 (not .def_198))) (let ((.def_200 (+ .def_175 .def_53))) (let ((.def_201 (< .def_200 (- 1)))) (let ((.def_202 (not .def_201))) (let ((.def_203 (or .def_202 .def_199))) (let ((.def_204 (+ .def_44 .def_1))) (let ((.def_205 (< .def_204 1))) (let ((.def_206 (not .def_205))) (let ((.def_207 (< .def_89 (- 1)))) (let ((.def_208 (and .def_207 .def_206))) (let ((.def_209 (not .def_208))) (let ((.def_210 (or .def_209 .def_203))) (let ((.def_211 (+ .def_11 .def_0))) (let ((.def_212 (< .def_211 (- 1)))) (let ((.def_213 (not .def_212))) (let ((.def_214 (or .def_213 A4))) (let ((.def_215 (not A4))) (let ((.def_216 (and .def_215 .def_120))) (let ((.def_217 (and .def_216 .def_214))) (let ((.def_218 (not .def_217))) (let ((.def_219 (and .def_218 .def_210))) (let ((.def_220 (or .def_219 .def_196))) (let ((.def_221 (and .def_179 A1))) (let ((.def_222 (+ .def_89 .def_99))) (let ((.def_223 (< .def_222 1))) (let ((.def_224 (not .def_223))) (let ((.def_225 (< .def_159 1))) (let ((.def_226 (or .def_225 .def_224))) (let ((.def_227 (not .def_226))) (let ((.def_228 (and .def_227 .def_221))) (let ((.def_229 (not .def_228))) (let ((.def_230 (+ .def_66 .def_64))) (let ((.def_231 (< .def_230 1))) (let ((.def_232 (not .def_231))) (let ((.def_233 (and .def_6 .def_232))) (let ((.def_234 (not .def_233))) (let ((.def_235 (+ .def_47 .def_64))) (let ((.def_236 (< .def_235 (- 1)))) (let ((.def_237 (and .def_71 .def_236))) (let ((.def_238 (= .def_237 .def_234))) (let ((.def_239 (= .def_238 .def_229))) (let ((.def_240 (not .def_239))) (let ((.def_241 (+ .def_113 .def_57))) (let ((.def_242 (< .def_241 1))) (let ((.def_243 (not .def_242))) (let ((.def_244 (= .def_33 .def_243))) (let ((.def_245 (or A6 .def_22))) (let ((.def_246 (not .def_245))) (let ((.def_247 (= .def_246 .def_244))) (let ((.def_248 (and A5 .def_215))) (let ((.def_249 (not .def_248))) (let ((.def_250 (< .def_57 1))) (let ((.def_251 (and .def_250 A5))) (let ((.def_252 (not .def_251))) (let ((.def_253 (or .def_252 .def_249))) (let ((.def_254 (or .def_253 .def_247))) (let ((.def_255 (not .def_254))) (let ((.def_256 (and .def_255 .def_240))) (let ((.def_257 (and .def_256 .def_220))) (let ((.def_258 (not .def_257))) (let ((.def_259 (and A3 A2))) (let ((.def_260 (not .def_259))) (let ((.def_261 (and A6 .def_6))) (let ((.def_262 (or .def_261 .def_260))) (let ((.def_263 (not .def_262))) (let ((.def_264 (and A6 .def_77))) (let ((.def_265 (not .def_264))) (let ((.def_266 (< .def_12 (- 1)))) (let ((.def_267 (not .def_266))) (let ((.def_268 (or .def_267 A5))) (let ((.def_269 (and .def_268 .def_265))) (let ((.def_270 (or .def_269 .def_263))) (let ((.def_271 (not .def_270))) (let ((.def_272 (and A9 .def_132))) (let ((.def_273 (not .def_272))) (let ((.def_274 (< .def_137 1))) (let ((.def_275 (and .def_274 .def_6))) (let ((.def_276 (or .def_275 .def_273))) (let ((.def_277 (< .def_47 1))) (let ((.def_278 (or .def_277 .def_22))) (let ((.def_279 (not .def_278))) (let ((.def_280 (< .def_113 1))) (let ((.def_281 (and A0 .def_280))) (let ((.def_282 (and .def_281 .def_279))) (let ((.def_283 (and .def_282 .def_276))) (let ((.def_284 (and .def_283 .def_271))) (let ((.def_285 (+ .def_123 .def_53))) (let ((.def_286 (< .def_285 1))) (let ((.def_287 (or .def_71 .def_286))) (let ((.def_288 (+ .def_113 .def_53))) (let ((.def_289 (< .def_288 (- 1)))) (let ((.def_290 (and .def_188 .def_289))) (let ((.def_291 (not .def_290))) (let ((.def_292 (or .def_291 .def_287))) (let ((.def_293 (or A7 A9))) (let ((.def_294 (not .def_293))) (let ((.def_295 (+ .def_159 .def_53))) (let ((.def_296 (< .def_295 (- 1)))) (let ((.def_297 (not .def_296))) (let ((.def_298 (and .def_124 .def_297))) (let ((.def_299 (not .def_298))) (let ((.def_300 (or .def_299 .def_294))) (let ((.def_301 (and .def_300 .def_292))) (let ((.def_302 (+ .def_89 .def_0))) (let ((.def_303 (< .def_302 1))) (let ((.def_304 (= .def_120 .def_303))) (let ((.def_305 (not .def_304))) (let ((.def_306 (+ .def_53 .def_89))) (let ((.def_307 (< .def_306 1))) (let ((.def_308 (or .def_69 .def_307))) (let ((.def_309 (and .def_308 .def_305))) (let ((.def_310 (and .def_132 .def_132))) (let ((.def_311 (not .def_28))) (let ((.def_312 (= .def_311 A4))) (let ((.def_313 (not .def_312))) (let ((.def_314 (and .def_313 .def_310))) (let ((.def_315 (not .def_314))) (let ((.def_316 (and .def_315 .def_309))) (let ((.def_317 (not .def_316))) (let ((.def_318 (= .def_317 .def_301))) (let ((.def_319 (or .def_318 .def_284))) (let ((.def_320 (not .def_319))) (let ((.def_321 (or .def_320 .def_258))) (let ((.def_322 (not .def_321))) (let ((.def_323 (= .def_322 .def_174))) (let ((.def_324 (or .def_132 A5))) (let ((.def_325 (< .def_137 (- 1)))) (let ((.def_326 (or .def_325 .def_22))) (let ((.def_327 (not .def_326))) (let ((.def_328 (or .def_327 .def_324))) (let ((.def_329 (not .def_328))) (let ((.def_330 (and .def_33 A0))) (let ((.def_331 (not .def_330))) (let ((.def_332 (+ .def_44 .def_175))) (let ((.def_333 (< .def_332 1))) (let ((.def_334 (not .def_333))) (let ((.def_335 (< .def_1 (- 1)))) (let ((.def_336 (not .def_335))) (let ((.def_337 (or .def_336 .def_334))) (let ((.def_338 (not .def_337))) (let ((.def_339 (or .def_338 .def_331))) (let ((.def_340 (and .def_339 .def_329))) (let ((.def_341 (not A8))) (let ((.def_342 (and .def_341 A8))) (let ((.def_343 (not .def_342))) (let ((.def_344 (or .def_215 A8))) (let ((.def_345 (not .def_344))) (let ((.def_346 (and .def_345 .def_343))) (let ((.def_347 (not .def_346))) (let ((.def_348 (< .def_64 (- 1)))) (let ((.def_349 (and .def_348 .def_71))) (let ((.def_350 (not .def_349))) (let ((.def_351 (< .def_75 (- 1)))) (let ((.def_352 (not .def_351))) (let ((.def_353 (+ .def_1 .def_159))) (let ((.def_354 (< .def_353 1))) (let ((.def_355 (= .def_354 .def_352))) (let ((.def_356 (and .def_355 .def_350))) (let ((.def_357 (not .def_356))) (let ((.def_358 (or .def_357 .def_347))) (let ((.def_359 (not .def_358))) (let ((.def_360 (or .def_359 .def_340))) (let ((.def_361 (not .def_360))) (let ((.def_362 (+ .def_47 .def_137))) (let ((.def_363 (< .def_362 (- 1)))) (let ((.def_364 (+ .def_27 .def_64))) (let ((.def_365 (< .def_364 1))) (let ((.def_366 (not .def_365))) (let ((.def_367 (and .def_366 .def_363))) (let ((.def_368 (and .def_215 .def_351))) (let ((.def_369 (or .def_368 .def_367))) (let ((.def_370 (+ .def_113 .def_89))) (let ((.def_371 (< .def_370 (- 1)))) (let ((.def_372 (or .def_371 .def_132))) (let ((.def_373 (not .def_372))) (let ((.def_374 (+ .def_0 .def_57))) (let ((.def_375 (< .def_374 (- 1)))) (let ((.def_376 (or .def_132 .def_375))) (let ((.def_377 (and .def_376 .def_373))) (let ((.def_378 (and .def_377 .def_369))) (let ((.def_379 (< .def_113 (- 1)))) (let ((.def_380 (not .def_379))) (let ((.def_381 (+ .def_1 .def_57))) (let ((.def_382 (< .def_381 1))) (let ((.def_383 (not .def_382))) (let ((.def_384 (and .def_383 .def_380))) (let ((.def_385 (not .def_384))) (let ((.def_386 (+ .def_64 .def_137))) (let ((.def_387 (< .def_386 (- 1)))) (let ((.def_388 (not .def_387))) (let ((.def_389 (or .def_388 A6))) (let ((.def_390 (and .def_389 .def_385))) (let ((.def_391 (not .def_390))) (let ((.def_392 (and .def_120 .def_341))) (let ((.def_393 (not .def_392))) (let ((.def_394 (+ .def_75 .def_57))) (let ((.def_395 (< .def_394 1))) (let ((.def_396 (and .def_395 A2))) (let ((.def_397 (not .def_396))) (let ((.def_398 (or .def_397 .def_393))) (let ((.def_399 (not .def_398))) (let ((.def_400 (or .def_399 .def_391))) (let ((.def_401 (not .def_400))) (let ((.def_402 (or .def_401 .def_378))) (let ((.def_403 (and .def_402 .def_361))) (let ((.def_404 (+ .def_137 .def_99))) (let ((.def_405 (< .def_404 1))) (let ((.def_406 (or .def_207 .def_405))) (let ((.def_407 (not .def_274))) (let ((.def_408 (or .def_407 A0))) (let ((.def_409 (not .def_408))) (let ((.def_410 (or .def_409 .def_406))) (let ((.def_411 (< .def_53 (- 1)))) (let ((.def_412 (not .def_411))) (let ((.def_413 (and .def_124 .def_412))) (let ((.def_414 (not .def_413))) (let ((.def_415 (+ .def_100 .def_12))) (let ((.def_416 (< .def_415 (- 1)))) (let ((.def_417 (not .def_416))) (let ((.def_418 (+ .def_12 .def_100))) (let ((.def_419 (< .def_418 1))) (let ((.def_420 (not .def_419))) (let ((.def_421 (= .def_420 .def_417))) (let ((.def_422 (not .def_421))) (let ((.def_423 (or .def_422 .def_414))) (let ((.def_424 (or .def_423 .def_410))) (let ((.def_425 (+ .def_27 .def_159))) (let ((.def_426 (< .def_425 1))) (let ((.def_427 (and .def_426 A2))) (let ((.def_428 (< .def_27 (- 1)))) (let ((.def_429 (or .def_22 .def_428))) (let ((.def_430 (not .def_429))) (let ((.def_431 (= .def_430 .def_427))) (let ((.def_432 (not .def_48))) (let ((.def_433 (or A2 .def_432))) (let ((.def_434 (not .def_433))) (let ((.def_435 (not .def_428))) (let ((.def_436 (and .def_435 .def_188))) (let ((.def_437 (not .def_436))) (let ((.def_438 (and .def_437 .def_434))) (let ((.def_439 (and .def_438 .def_431))) (let ((.def_440 (not .def_439))) (let ((.def_441 (or .def_440 .def_424))) (let ((.def_442 (not .def_441))) (let ((.def_443 (= A4 A1))) (let ((.def_444 (or .def_6 .def_32))) (let ((.def_445 (and .def_444 .def_443))) (let ((.def_446 (and A3 A6))) (let ((.def_447 (not .def_446))) (let ((.def_448 (+ .def_137 .def_11))) (let ((.def_449 (< .def_448 (- 1)))) (let ((.def_450 (+ .def_64 .def_159))) (let ((.def_451 (< .def_450 1))) (let ((.def_452 (not .def_451))) (let ((.def_453 (or .def_452 .def_449))) (let ((.def_454 (not .def_453))) (let ((.def_455 (and .def_454 .def_447))) (let ((.def_456 (not .def_455))) (let ((.def_457 (and .def_456 .def_445))) (let ((.def_458 (not .def_457))) (let ((.def_459 (+ .def_66 .def_137))) (let ((.def_460 (< .def_459 1))) (let ((.def_461 (and .def_460 .def_22))) (let ((.def_462 (or .def_33 A8))) (let ((.def_463 (and .def_462 .def_461))) (let ((.def_464 (not .def_463))) (let ((.def_465 (< .def_99 1))) (let ((.def_466 (and A3 .def_465))) (let ((.def_467 (not .def_466))) (let ((.def_468 (< .def_0 1))) (let ((.def_469 (not .def_468))) (let ((.def_470 (= A6 .def_469))) (let ((.def_471 (= .def_470 .def_467))) (let ((.def_472 (not .def_471))) (let ((.def_473 (or .def_472 .def_464))) (let ((.def_474 (not .def_473))) (let ((.def_475 (and .def_474 .def_458))) (let ((.def_476 (not .def_475))) (let ((.def_477 (= .def_476 .def_442))) (let ((.def_478 (not .def_477))) (let ((.def_479 (and .def_478 .def_403))) (let ((.def_480 (not .def_479))) (let ((.def_481 (and .def_22 A8))) (let ((.def_482 (+ .def_0 .def_100))) (let ((.def_483 (< .def_482 1))) (let ((.def_484 (< .def_44 1))) (let ((.def_485 (or .def_484 .def_483))) (let ((.def_486 (not .def_485))) (let ((.def_487 (or .def_486 .def_481))) (let ((.def_488 (not .def_487))) (let ((.def_489 (+ .def_100 .def_89))) (let ((.def_490 (< .def_489 1))) (let ((.def_491 (and .def_490 .def_407))) (let ((.def_492 (< .def_175 (- 1)))) (let ((.def_493 (or .def_71 .def_492))) (let ((.def_494 (or .def_493 .def_491))) (let ((.def_495 (or .def_494 .def_488))) (let ((.def_496 (not .def_495))) (let ((.def_497 (and A3 .def_179))) (let ((.def_498 (+ .def_44 .def_12))) (let ((.def_499 (< .def_498 (- 1)))) (let ((.def_500 (not .def_499))) (let ((.def_501 (or .def_71 .def_500))) (let ((.def_502 (or .def_501 .def_497))) (let ((.def_503 (not .def_502))) (let ((.def_504 (and .def_6 A8))) (let ((.def_505 (not .def_504))) (let ((.def_506 (< .def_0 (- 1)))) (let ((.def_507 (and .def_506 .def_179))) (let ((.def_508 (not .def_507))) (let ((.def_509 (= .def_508 .def_505))) (let ((.def_510 (and .def_509 .def_503))) (let ((.def_511 (not .def_510))) (let ((.def_512 (or .def_511 .def_496))) (let ((.def_513 (not .def_280))) (let ((.def_514 (or .def_74 .def_513))) (let ((.def_515 (+ .def_1 .def_12))) (let ((.def_516 (< .def_515 (- 1)))) (let ((.def_517 (< .def_374 1))) (let ((.def_518 (not .def_517))) (let ((.def_519 (and .def_518 .def_516))) (let ((.def_520 (or .def_519 .def_514))) (let ((.def_521 (not .def_520))) (let ((.def_522 (not .def_506))) (let ((.def_523 (and A2 .def_522))) (let ((.def_524 (+ .def_11 .def_64))) (let ((.def_525 (< .def_524 1))) (let ((.def_526 (not .def_525))) (let ((.def_527 (or A4 .def_526))) (let ((.def_528 (and .def_527 .def_523))) (let ((.def_529 (or .def_528 .def_521))) (let ((.def_530 (not .def_529))) (let ((.def_531 (< .def_100 1))) (let ((.def_532 (and .def_531 A4))) (let ((.def_533 (< .def_159 (- 1)))) (let ((.def_534 (not .def_533))) (let ((.def_535 (+ .def_57 .def_27))) (let ((.def_536 (< .def_535 1))) (let ((.def_537 (not .def_536))) (let ((.def_538 (and .def_537 .def_534))) (let ((.def_539 (or .def_538 .def_532))) (let ((.def_540 (+ .def_47 .def_175))) (let ((.def_541 (< .def_540 1))) (let ((.def_542 (and .def_541 .def_341))) (let ((.def_543 (+ .def_123 .def_12))) (let ((.def_544 (< .def_543 1))) (let ((.def_545 (not .def_544))) (let ((.def_546 (and .def_545 .def_411))) (let ((.def_547 (not .def_546))) (let ((.def_548 (or .def_547 .def_542))) (let ((.def_549 (not .def_548))) (let ((.def_550 (or .def_549 .def_539))) (let ((.def_551 (or .def_550 .def_530))) (let ((.def_552 (not .def_551))) (let ((.def_553 (or .def_552 .def_512))) (let ((.def_554 (+ .def_123 .def_47))) (let ((.def_555 (< .def_554 (- 1)))) (let ((.def_556 (not .def_555))) (let ((.def_557 (and A7 .def_556))) (let ((.def_558 (not .def_557))) (let ((.def_559 (and .def_558 .def_248))) (let ((.def_560 (< .def_66 (- 1)))) (let ((.def_561 (not .def_560))) (let ((.def_562 (and A9 .def_561))) (let ((.def_563 (not .def_562))) (let ((.def_564 (+ .def_11 .def_75))) (let ((.def_565 (< .def_564 1))) (let ((.def_566 (or .def_184 .def_565))) (let ((.def_567 (and .def_566 .def_563))) (let ((.def_568 (and .def_567 .def_559))) (let ((.def_569 (+ .def_66 .def_113))) (let ((.def_570 (< .def_569 1))) (let ((.def_571 (and .def_570 .def_428))) (let ((.def_572 (+ .def_100 .def_1))) (let ((.def_573 (< .def_572 1))) (let ((.def_574 (not .def_573))) (let ((.def_575 (or .def_574 A7))) (let ((.def_576 (not .def_575))) (let ((.def_577 (and .def_576 .def_571))) (let ((.def_578 (not .def_577))) (let ((.def_579 (+ .def_57 .def_89))) (let ((.def_580 (< .def_579 1))) (let ((.def_581 (and .def_580 A6))) (let ((.def_582 (and A7 .def_274))) (let ((.def_583 (not .def_582))) (let ((.def_584 (and .def_583 .def_581))) (let ((.def_585 (or .def_584 .def_578))) (let ((.def_586 (not .def_585))) (let ((.def_587 (or .def_586 .def_568))) (let ((.def_588 (and .def_120 A4))) (let ((.def_589 (+ .def_27 .def_113))) (let ((.def_590 (< .def_589 (- 1)))) (let ((.def_591 (or .def_590 .def_15))) (let ((.def_592 (or .def_591 .def_588))) (let ((.def_593 (+ .def_44 .def_75))) (let ((.def_594 (< .def_593 (- 1)))) (let ((.def_595 (not .def_594))) (let ((.def_596 (and A4 .def_595))) (let ((.def_597 (not .def_596))) (let ((.def_598 (and .def_597 .def_192))) (let ((.def_599 (not .def_598))) (let ((.def_600 (and .def_599 .def_592))) (let ((.def_601 (not .def_600))) (let ((.def_602 (< .def_57 (- 1)))) (let ((.def_603 (not .def_602))) (let ((.def_604 (= .def_33 .def_603))) (let ((.def_605 (< .def_211 1))) (let ((.def_606 (not .def_605))) (let ((.def_607 (and A1 .def_606))) (let ((.def_608 (or .def_607 .def_604))) (let ((.def_609 (not .def_608))) (let ((.def_610 (+ .def_27 .def_57))) (let ((.def_611 (< .def_610 (- 1)))) (let ((.def_612 (and .def_215 .def_611))) (let ((.def_613 (not .def_612))) (let ((.def_614 (and .def_465 .def_71))) (let ((.def_615 (and .def_614 .def_613))) (let ((.def_616 (not .def_615))) (let ((.def_617 (= .def_616 .def_609))) (let ((.def_618 (not .def_617))) (let ((.def_619 (and .def_618 .def_601))) (let ((.def_620 (and .def_619 .def_587))) (let ((.def_621 (or .def_620 .def_553))) (let ((.def_622 (not .def_621))) (let ((.def_623 (or .def_622 .def_480))) (let ((.def_624 (not .def_623))) (let ((.def_625 (or .def_624 .def_323))) (let ((.def_626 (not .def_625))) (let ((.def_627 (<= x9 1))) (let ((.def_628 (<= 0 x9))) (let ((.def_629 (<= x8 1))) (let ((.def_630 (<= 0 x8))) (let ((.def_631 (<= x7 1))) (let ((.def_632 (<= 0 x7))) (let ((.def_633 (<= x6 1))) (let ((.def_634 (<= 0 x6))) (let ((.def_635 (<= x5 1))) (let ((.def_636 (<= 0 x5))) (let ((.def_637 (<= x4 1))) (let ((.def_638 (<= 0 x4))) (let ((.def_639 (<= x3 1))) (let ((.def_640 (<= 0 x3))) (let ((.def_641 (<= x2 1))) (let ((.def_642 (<= 0 x2))) (let ((.def_643 (<= x1 1))) (let ((.def_644 (<= 0 x1))) (let ((.def_645 (<= x0 1))) (let ((.def_646 (<= 0 x0))) (let ((.def_647 (and .def_646 .def_645 .def_644 .def_643 .def_642 .def_641 .def_640 .def_639 .def_638 .def_637 .def_636 .def_635 .def_634 .def_633 .def_632 .def_631 .def_630 .def_629 .def_628 .def_627 .def_626))) .def_647)))))))))))))))))))))))))))))))))))))))))))))))))))))))))))))))))))))))))))))))))))))))))))))))))))))))))))))))))))))))))))))))))))))))))))))))))))))))))))))))))))))))))))))))))))))))))))))))))))))))))))))))))))))))))))))))))))))))))))))))))))))))))))))))))))))))))))))))))))))))))))))))))))))))))))))))))))))))))))))))))))))))))))))))))))))))))))))))))))))))))))))))))))))))))))))))))))))))))))))))))))))))))))))))))))))))))))))))))))))))))))))))))))))))))))))))))))))))))))))))))))))))))))))))))))))))))))))))))))))))))))))))))))))))))))))))))))))))))))))))))))))))))))))))))))))))))))))))))))))))))))))))))))))))))))))))))))))))))))))))))))))))))
(check-sat)
